NAME : sim51.71568.tour
COMMENT : Length = 71568
COMMENT : Found by LKH [Keld Helsgaun] Wed Aug 29 08:50:00 2018
TYPE : TOUR
DIMENSION : 51
TOUR_SECTION
1
23
9
6
28
17
8
5
37
15
26
30
12
45
41
38
36
47
21
42
4
43
2
33
19
29
16
22
31
51
49
50
35
40
14
7
34
18
27
32
48
10
24
11
13
20
39
3
25
46
44
-1
EOF
